(declare-const term_to_project_onto Real)
(declare-const term_to_project_onto2 Real)
(declare-const term_to_project_onto3 Real)
(declare-const term_to_project_onto1 Real)
(declare-const __VERIFIER_assert__cond___0 Int)
(declare-const term_to_project_onto0 Real)
(declare-const main____CPAchecker_TMP_0___0 Int)
(declare-const term_to_project_onto4 Real)
(declare-const term_to_project_onto5 Real)
(assert (exists
         ((|__VERIFIER_assert__cond___0'?1| Int)
            (|main____CPAchecker_TMP_0___0'?2| Int)
            (|main____CPAchecker_TMP_0'?3| Int) (|main__loop_entered'?4| Int)
            (|__tmp_155_0'?5| Int) (phi_main____CPAchecker_TMP_0___0?6 Int)
            (tr?7 Int) (tr?8 Int) (|main__index2'?9| Int)
            (|main__index1'?10| Int) (main__loop_entered?11 Int)
            (__tmp_155_0?12 Int) (main____CPAchecker_TMP_0?13 Int)
            (main__index2?14 Int) (main__index1?15 Int))
         (and (<= (- main__loop_entered?11) 0)
                (<= (+ (- __tmp_155_0?12) 1) 0)
                (<= (+ (- main____CPAchecker_TMP_0?13) 1) 0)
                (<= (+ (- main__index2?14) 1) 0) (<= (- main__index1?15) 0)
                (= (+ (- tr?7) tr?8) 0)
                (<= (+ main__index1?15 (- main__index2?14) 3) 0)
                (or (and (<= (+ main__index1?15 -99998) 0)
                           (<= (+ main__index2?14 -100000) 0)
                           (= (+ (- phi_main____CPAchecker_TMP_0___0?6) 1) 0))
                      (and (or (<= (+ (- main__index1?15) 99999) 0)
                                 (and (<= (+ main__index1?15 -99998) 0)
                                        (<= (+ (- main__index2?14) 100001) 0)))
                             (= (- phi_main____CPAchecker_TMP_0___0?6) 0)))
                (or (<= (+ phi_main____CPAchecker_TMP_0___0?6 1) 0)
                      (<= (+ (- phi_main____CPAchecker_TMP_0___0?6) 1) 0))
                (= (+ |__VERIFIER_assert__cond___0'?1|
                        (- phi_main____CPAchecker_TMP_0___0?6)) 0)
                (= (+ |main____CPAchecker_TMP_0___0'?2|
                        (- phi_main____CPAchecker_TMP_0___0?6)) 0)
                (= (+ |main____CPAchecker_TMP_0'?3| (- __tmp_155_0?12)) 0)
                (= (+ |main__loop_entered'?4| -1) 0)
                (= (+ |main__index2'?9| (- main__index2?14) 1) 0)
                (= (+ |main__index1'?10| (- main__index1?15) -1) 0)
                (= (+ |__tmp_155_0'?5| (- phi_main____CPAchecker_TMP_0___0?6)) 0)
                (= term_to_project_onto5 (+ |__tmp_155_0'?5|
                                              (- __tmp_155_0?12)))
                (= term_to_project_onto4 (+ |main__index1'?10|
                                              (- main__index1?15)))
                (= term_to_project_onto3 (+ |main__index2'?9|
                                              (- main__index2?14)))
                (= term_to_project_onto2 (+ |main__loop_entered'?4|
                                              (- main__loop_entered?11)))
                (= term_to_project_onto1 (+ |main____CPAchecker_TMP_0'?3|
                                              (- main____CPAchecker_TMP_0?13)))
                (= term_to_project_onto0 (+ |main____CPAchecker_TMP_0___0'?2|
                                              (- main____CPAchecker_TMP_0___0)))
                (= term_to_project_onto (+ |__VERIFIER_assert__cond___0'?1|
                                             (- __VERIFIER_assert__cond___0))))))
(check-sat)
